Route #1: 7 158 10 49 69 163 63 129 86 157 15 97 18 16 141 120 135
Route #2: 125 88 43 55 24 140 155 133 61 114 72 144 131 4 80 122 153
Route #3: 53 116 98 149 117 9 115 137 38 85 147 52 11 73 33 54 113 96 159
Route #4: 81 106 37 111 66 35 165 82 46 99 151 136 101 103 109 28 102 19 145
Route #5: 138 74 23 84 70 156 57 59 62 128 127 48 119 94 26 8 90 68
Route #6: 124 36 27 166 79 42 75 34 107 167 95 91 162 92 50 148 21 139
Route #7: 126 67 44 118 108 65 105 13 58 78 14 2 123 112 89 164 146 130
Route #8: 77 143 20 51 41 32 25 134 71 142 40 12 83 121 60 76 161 150 22
Route #9: 47 160 39 152 154 3 30 29 17 110 5 132 56 93 31 45
Route #10: 100 64 104 87 6
Cost 30709
